c "912756.clq"
p edge 100 1344
e 1 17
e 1 18
e 1 19
e 1 20
e 1 23
e 1 24
e 1 27
e 1 29
e 1 30
e 1 31
e 1 36
e 1 37
e 1 39
e 1 53
e 1 62
e 1 68
e 1 76
e 1 77
e 1 80
e 1 85
e 1 86
e 1 93
e 1 95
e 1 96
e 1 97
e 1 98
e 1 99
e 2 17
e 2 18
e 2 19
e 2 20
e 2 21
e 2 26
e 2 30
e 2 31
e 2 32
e 2 33
e 2 35
e 2 37
e 2 40
e 2 41
e 2 42
e 2 53
e 2 57
e 2 58
e 2 70
e 2 71
e 2 84
e 3 17
e 3 19
e 3 20
e 3 22
e 3 24
e 3 26
e 3 35
e 3 40
e 3 52
e 3 60
e 3 62
e 3 67
e 3 72
e 3 78
e 3 92
e 3 97
e 4 17
e 4 18
e 4 19
e 4 20
e 4 21
e 4 22
e 4 24
e 4 25
e 4 26
e 4 27
e 4 28
e 4 32
e 4 33
e 4 37
e 4 40
e 4 41
e 4 45
e 4 46
e 4 47
e 4 48
e 4 53
e 4 55
e 4 57
e 4 62
e 4 66
e 4 68
e 4 70
e 4 71
e 4 74
e 4 76
e 4 81
e 4 85
e 4 87
e 4 94
e 4 97
e 5 17
e 5 18
e 5 19
e 5 20
e 5 21
e 5 23
e 5 26
e 5 28
e 5 29
e 5 32
e 5 35
e 5 38
e 5 41
e 5 44
e 5 45
e 5 46
e 5 47
e 5 48
e 5 49
e 5 55
e 5 57
e 5 58
e 5 61
e 5 67
e 5 81
e 5 94
e 5 95
e 6 17
e 6 18
e 6 21
e 6 22
e 6 23
e 6 24
e 6 25
e 6 28
e 6 29
e 6 31
e 6 33
e 6 34
e 6 35
e 6 36
e 6 41
e 6 42
e 6 45
e 6 49
e 6 50
e 6 51
e 6 52
e 6 56
e 6 58
e 6 64
e 6 67
e 6 70
e 6 82
e 6 87
e 6 89
e 6 99
e 7 17
e 7 18
e 7 20
e 7 21
e 7 24
e 7 25
e 7 29
e 7 30
e 7 33
e 7 34
e 7 40
e 7 44
e 7 45
e 7 50
e 7 53
e 7 55
e 7 57
e 7 60
e 7 67
e 7 70
e 7 91
e 8 17
e 8 18
e 8 19
e 8 20
e 8 22
e 8 23
e 8 24
e 8 25
e 8 26
e 8 27
e 8 37
e 8 38
e 8 43
e 8 44
e 8 46
e 8 49
e 8 50
e 8 58
e 8 63
e 8 66
e 8 71
e 8 77
e 8 78
e 8 89
e 8 92
e 8 96
e 9 17
e 9 18
e 9 19
e 9 22
e 9 23
e 9 24
e 9 25
e 9 30
e 9 36
e 9 38
e 9 40
e 9 41
e 9 48
e 9 53
e 9 69
e 9 72
e 9 87
e 9 90
e 9 98
e 10 17
e 10 18
e 10 19
e 10 20
e 10 21
e 10 22
e 10 23
e 10 24
e 10 26
e 10 27
e 10 28
e 10 29
e 10 30
e 10 32
e 10 34
e 10 37
e 10 38
e 10 39
e 10 40
e 10 43
e 10 44
e 10 47
e 10 48
e 10 49
e 10 52
e 10 54
e 10 55
e 10 61
e 10 62
e 10 65
e 10 66
e 10 69
e 10 71
e 10 80
e 10 82
e 10 84
e 10 86
e 10 94
e 10 99
e 11 17
e 11 18
e 11 19
e 11 20
e 11 21
e 11 22
e 11 25
e 11 26
e 11 27
e 11 28
e 11 29
e 11 38
e 11 46
e 11 48
e 11 50
e 11 70
e 11 75
e 11 80
e 12 17
e 12 18
e 12 19
e 12 20
e 12 21
e 12 22
e 12 23
e 12 24
e 12 26
e 12 27
e 12 28
e 12 29
e 12 31
e 12 36
e 12 39
e 12 43
e 12 47
e 12 52
e 12 54
e 12 60
e 12 66
e 12 69
e 12 73
e 12 78
e 12 88
e 12 98
e 13 17
e 13 18
e 13 19
e 13 21
e 13 22
e 13 23
e 13 25
e 13 27
e 13 29
e 13 31
e 13 33
e 13 34
e 13 41
e 13 50
e 13 56
e 13 57
e 13 66
e 13 74
e 13 76
e 13 77
e 13 80
e 13 83
e 13 84
e 13 96
e 13 98
e 13 100
e 14 17
e 14 18
e 14 19
e 14 20
e 14 21
e 14 22
e 14 23
e 14 26
e 14 27
e 14 32
e 14 34
e 14 35
e 14 43
e 14 44
e 14 46
e 14 48
e 14 59
e 14 62
e 14 64
e 14 76
e 14 79
e 14 83
e 14 91
e 15 17
e 15 18
e 15 19
e 15 20
e 15 21
e 15 22
e 15 24
e 15 25
e 15 26
e 15 28
e 15 29
e 15 33
e 15 34
e 15 35
e 15 37
e 15 38
e 15 40
e 15 41
e 15 52
e 15 55
e 15 60
e 15 62
e 15 63
e 15 64
e 15 65
e 15 66
e 15 71
e 15 72
e 15 74
e 15 91
e 15 93
e 15 94
e 15 98
e 16 17
e 16 18
e 16 19
e 16 20
e 16 21
e 16 22
e 16 23
e 16 24
e 16 25
e 16 27
e 16 28
e 16 31
e 16 33
e 16 34
e 16 36
e 16 37
e 16 41
e 16 47
e 16 50
e 16 58
e 16 65
e 16 70
e 16 74
e 16 81
e 16 82
e 16 83
e 16 86
e 16 88
e 17 18
e 17 19
e 17 20
e 17 21
e 17 22
e 17 23
e 17 24
e 17 25
e 17 26
e 17 27
e 17 29
e 17 30
e 17 31
e 17 32
e 17 33
e 17 34
e 17 37
e 17 38
e 17 39
e 17 42
e 17 43
e 17 45
e 17 47
e 17 49
e 17 51
e 17 52
e 17 55
e 17 56
e 17 59
e 17 61
e 17 67
e 17 68
e 17 69
e 17 72
e 17 73
e 17 75
e 17 79
e 17 83
e 17 85
e 17 88
e 17 89
e 17 100
e 18 19
e 18 20
e 18 21
e 18 22
e 18 23
e 18 24
e 18 25
e 18 26
e 18 27
e 18 28
e 18 29
e 18 30
e 18 31
e 18 32
e 18 33
e 18 34
e 18 35
e 18 36
e 18 39
e 18 40
e 18 41
e 18 42
e 18 43
e 18 45
e 18 46
e 18 47
e 18 48
e 18 51
e 18 52
e 18 55
e 18 57
e 18 60
e 18 61
e 18 65
e 18 66
e 18 70
e 18 73
e 18 74
e 18 75
e 18 77
e 18 78
e 18 82
e 18 86
e 18 89
e 18 90
e 18 92
e 18 96
e 18 97
e 18 100
e 19 20
e 19 21
e 19 22
e 19 23
e 19 24
e 19 25
e 19 26
e 19 27
e 19 28
e 19 29
e 19 30
e 19 31
e 19 32
e 19 33
e 19 34
e 19 36
e 19 37
e 19 39
e 19 41
e 19 42
e 19 43
e 19 44
e 19 45
e 19 47
e 19 50
e 19 52
e 19 53
e 19 54
e 19 55
e 19 56
e 19 57
e 19 59
e 19 61
e 19 62
e 19 63
e 19 64
e 19 65
e 19 67
e 19 68
e 19 72
e 19 73
e 19 74
e 19 75
e 19 77
e 19 81
e 19 84
e 19 85
e 19 92
e 19 93
e 19 95
e 19 97
e 20 21
e 20 22
e 20 23
e 20 25
e 20 26
e 20 28
e 20 30
e 20 34
e 20 35
e 20 36
e 20 37
e 20 38
e 20 42
e 20 43
e 20 45
e 20 52
e 20 54
e 20 57
e 20 60
e 20 61
e 20 63
e 20 64
e 20 65
e 20 67
e 20 68
e 20 69
e 20 70
e 20 73
e 20 75
e 20 76
e 20 78
e 20 87
e 20 94
e 20 95
e 20 99
e 21 23
e 21 24
e 21 25
e 21 27
e 21 28
e 21 30
e 21 31
e 21 32
e 21 33
e 21 35
e 21 36
e 21 37
e 21 38
e 21 42
e 21 43
e 21 44
e 21 45
e 21 47
e 21 49
e 21 54
e 21 55
e 21 56
e 21 58
e 21 60
e 21 62
e 21 63
e 21 66
e 21 68
e 21 79
e 21 82
e 21 89
e 21 90
e 21 95
e 21 100
e 22 23
e 22 25
e 22 27
e 22 28
e 22 30
e 22 31
e 22 35
e 22 36
e 22 39
e 22 41
e 22 42
e 22 43
e 22 44
e 22 51
e 22 52
e 22 54
e 22 60
e 22 65
e 22 67
e 22 70
e 22 73
e 22 75
e 22 86
e 22 91
e 23 24
e 23 26
e 23 27
e 23 28
e 23 30
e 23 31
e 23 32
e 23 34
e 23 35
e 23 39
e 23 40
e 23 44
e 23 51
e 23 53
e 23 58
e 23 59
e 23 61
e 23 68
e 23 72
e 23 73
e 23 74
e 23 80
e 23 83
e 23 85
e 23 88
e 23 96
e 23 99
e 23 100
e 24 25
e 24 27
e 24 28
e 24 29
e 24 30
e 24 31
e 24 32
e 24 33
e 24 34
e 24 35
e 24 36
e 24 38
e 24 40
e 24 41
e 24 42
e 24 44
e 24 48
e 24 49
e 24 54
e 24 55
e 24 56
e 24 57
e 24 58
e 24 71
e 24 72
e 24 76
e 24 78
e 24 80
e 24 82
e 24 89
e 24 93
e 24 96
e 25 26
e 25 28
e 25 29
e 25 30
e 25 31
e 25 32
e 25 35
e 25 36
e 25 39
e 25 42
e 25 43
e 25 46
e 25 47
e 25 53
e 25 54
e 25 59
e 25 61
e 25 62
e 25 66
e 25 67
e 25 68
e 25 69
e 25 72
e 25 73
e 25 75
e 25 77
e 25 78
e 25 80
e 25 81
e 25 82
e 25 89
e 25 91
e 25 94
e 25 99
e 26 30
e 26 37
e 26 39
e 26 40
e 26 44
e 26 45
e 26 46
e 26 48
e 26 51
e 26 52
e 26 54
e 26 56
e 26 63
e 26 67
e 26 68
e 26 69
e 26 71
e 26 78
e 26 81
e 26 87
e 27 29
e 27 31
e 27 32
e 27 33
e 27 34
e 27 35
e 27 37
e 27 38
e 27 39
e 27 42
e 27 43
e 27 46
e 27 47
e 27 49
e 27 51
e 27 52
e 27 53
e 27 55
e 27 56
e 27 61
e 27 63
e 27 66
e 27 68
e 27 70
e 27 72
e 27 73
e 27 75
e 27 79
e 27 81
e 27 87
e 27 88
e 27 91
e 28 29
e 28 31
e 28 32
e 28 33
e 28 36
e 28 37
e 28 38
e 28 40
e 28 42
e 28 43
e 28 46
e 28 48
e 28 49
e 28 51
e 28 53
e 28 54
e 28 58
e 28 59
e 28 62
e 28 63
e 28 68
e 28 72
e 28 73
e 28 76
e 28 83
e 28 84
e 28 87
e 28 88
e 28 95
e 29 30
e 29 32
e 29 33
e 29 35
e 29 36
e 29 39
e 29 42
e 29 47
e 29 51
e 29 53
e 29 58
e 29 63
e 29 71
e 29 76
e 29 80
e 29 84
e 29 85
e 29 86
e 29 89
e 29 100
e 30 32
e 30 34
e 30 40
e 30 44
e 30 47
e 30 50
e 30 51
e 30 56
e 30 57
e 30 59
e 30 63
e 30 64
e 30 71
e 30 72
e 30 76
e 30 79
e 30 80
e 30 86
e 30 87
e 30 89
e 30 91
e 30 93
e 30 99
e 30 100
e 31 33
e 31 36
e 31 37
e 31 38
e 31 39
e 31 40
e 31 44
e 31 51
e 31 56
e 31 63
e 31 64
e 31 69
e 31 74
e 31 76
e 31 83
e 31 86
e 31 89
e 31 96
e 32 34
e 32 35
e 32 37
e 32 38
e 32 39
e 32 44
e 32 45
e 32 46
e 32 48
e 32 54
e 32 55
e 32 56
e 32 59
e 32 60
e 32 64
e 32 66
e 32 67
e 32 70
e 32 71
e 32 73
e 32 74
e 32 82
e 32 83
e 32 84
e 32 90
e 32 95
e 33 38
e 33 39
e 33 41
e 33 45
e 33 46
e 33 48
e 33 49
e 33 53
e 33 54
e 33 59
e 33 63
e 33 65
e 33 68
e 33 71
e 33 74
e 33 79
e 33 93
e 33 96
e 33 98
e 33 99
e 34 36
e 34 39
e 34 43
e 34 45
e 34 46
e 34 48
e 34 49
e 34 52
e 34 54
e 34 61
e 34 65
e 34 71
e 34 72
e 34 77
e 34 86
e 34 87
e 34 91
e 34 97
e 35 38
e 35 40
e 35 41
e 35 42
e 35 46
e 35 51
e 35 58
e 35 62
e 35 63
e 35 64
e 35 67
e 35 76
e 35 82
e 35 83
e 35 84
e 35 88
e 35 93
e 36 41
e 36 44
e 36 49
e 36 50
e 36 51
e 36 69
e 36 78
e 36 80
e 36 83
e 36 87
e 36 95
e 37 42
e 37 43
e 37 48
e 37 49
e 37 50
e 37 52
e 37 65
e 37 67
e 37 74
e 37 75
e 37 85
e 37 90
e 37 94
e 37 97
e 37 100
e 38 41
e 38 44
e 38 48
e 38 49
e 38 50
e 38 55
e 38 56
e 38 57
e 38 60
e 38 64
e 38 69
e 38 90
e 38 96
e 39 40
e 39 45
e 39 52
e 39 69
e 39 73
e 39 75
e 39 79
e 39 81
e 39 85
e 39 90
e 39 99
e 40 42
e 40 46
e 40 53
e 40 60
e 40 64
e 40 69
e 40 71
e 40 74
e 40 80
e 40 82
e 40 85
e 40 86
e 40 88
e 40 98
e 41 43
e 41 45
e 41 56
e 41 57
e 41 61
e 41 65
e 41 66
e 41 68
e 41 79
e 41 92
e 41 94
e 42 50
e 42 51
e 42 53
e 42 54
e 42 58
e 42 62
e 42 70
e 42 80
e 42 84
e 42 85
e 42 86
e 42 88
e 42 98
e 43 47
e 43 49
e 43 51
e 43 53
e 43 57
e 43 60
e 43 61
e 43 62
e 43 66
e 43 73
e 43 77
e 43 78
e 43 89
e 43 90
e 43 93
e 43 94
e 43 95
e 43 96
e 44 45
e 44 47
e 44 50
e 44 63
e 44 67
e 44 81
e 44 84
e 44 88
e 44 93
e 44 97
e 44 99
e 45 46
e 45 47
e 45 48
e 45 58
e 45 59
e 45 61
e 45 62
e 45 69
e 45 75
e 45 76
e 45 79
e 45 80
e 45 82
e 45 89
e 45 97
e 46 51
e 46 54
e 46 55
e 46 56
e 46 58
e 46 62
e 46 63
e 46 64
e 46 65
e 46 79
e 46 90
e 46 92
e 46 96
e 46 98
e 46 100
e 47 50
e 47 71
e 47 88
e 47 100
e 48 49
e 48 50
e 48 60
e 48 62
e 48 64
e 48 72
e 48 91
e 48 99
e 49 50
e 49 52
e 49 56
e 49 59
e 49 69
e 49 80
e 49 87
e 49 89
e 49 98
e 49 99
e 50 57
e 50 65
e 50 76
e 50 77
e 50 86
e 50 92
e 50 93
e 50 96
e 51 54
e 51 59
e 51 85
e 51 92
e 52 53
e 52 55
e 52 59
e 52 61
e 52 65
e 52 69
e 52 75
e 52 94
e 53 56
e 53 58
e 53 70
e 53 71
e 53 74
e 53 78
e 53 79
e 53 90
e 54 55
e 54 57
e 54 59
e 54 60
e 54 65
e 54 72
e 54 83
e 54 84
e 54 92
e 54 97
e 55 57
e 55 58
e 55 64
e 55 77
e 55 78
e 55 81
e 55 85
e 55 91
e 56 59
e 56 65
e 56 66
e 56 72
e 56 80
e 56 83
e 56 84
e 56 97
e 57 59
e 57 60
e 57 61
e 57 63
e 57 64
e 57 66
e 57 74
e 57 84
e 57 85
e 57 87
e 57 92
e 57 94
e 57 98
e 57 99
e 58 68
e 58 76
e 58 81
e 58 83
e 58 86
e 58 98
e 58 100
e 59 60
e 59 61
e 59 64
e 59 67
e 59 68
e 59 72
e 59 77
e 59 79
e 59 81
e 59 84
e 59 86
e 59 90
e 59 92
e 59 100
e 60 73
e 60 77
e 60 82
e 60 89
e 60 92
e 60 94
e 60 98
e 61 66
e 61 69
e 61 78
e 61 79
e 61 81
e 61 86
e 61 90
e 61 92
e 61 93
e 62 71
e 62 73
e 62 77
e 62 78
e 62 83
e 62 84
e 62 85
e 62 90
e 62 94
e 63 76
e 64 70
e 64 75
e 64 76
e 64 80
e 64 87
e 64 96
e 64 98
e 65 67
e 65 73
e 65 82
e 65 88
e 65 93
e 65 95
e 66 68
e 66 70
e 66 78
e 66 79
e 66 84
e 66 87
e 66 88
e 66 95
e 66 97
e 67 74
e 67 77
e 67 83
e 68 88
e 68 91
e 69 70
e 69 75
e 69 81
e 69 83
e 69 90
e 69 95
e 70 78
e 70 92
e 71 74
e 71 95
e 72 75
e 72 79
e 72 81
e 72 82
e 72 85
e 72 94
e 72 99
e 73 75
e 73 89
e 73 95
e 74 77
e 74 91
e 74 99
e 75 91
e 75 95
e 76 77
e 76 82
e 76 89
e 76 92
e 77 79
e 77 87
e 77 88
e 77 90
e 77 93
e 77 97
e 78 85
e 78 92
e 78 93
e 78 96
e 78 97
e 79 87
e 80 81
e 80 82
e 80 86
e 80 98
e 82 91
e 82 100
e 83 88
e 83 91
e 84 90
e 84 94
e 84 96
e 84 97
e 86 91
e 86 93
e 86 96
e 86 100
e 87 93
e 87 99
e 89 94
e 89 95
e 89 98
e 89 100
e 93 97
e 93 100
